1	3	1	2	6	15	0	0	0	0	0	0
2000	1	0	0	0	0	0	0	0	0	0	0
250	1	0	77.75	0.39	1	0	0	0	0	0	0
250	1	0	77.75	0.39	1	0	0	0	0	0	0
250     1       0       77.75   0.39    1       0       0       0       0       0       0
50	150	0	0	0	0	960	0	0	99999	0	0
50	75	0	0	0	0	960	0	0	99999	0	0
50	25	0	0	0	0	960	0	0	99999	0	0
50	75	0	0	0	0	960	0	0	0	0	0
50	25	0	0	0	0	960	0	0	0	0	0
21	83	0	0	0	0	960	0	0	0	0	0
22	34	0	0	0	0	960	0	0	0	0	0
48	8	0	0	0	0	960	0	0	0	0	0
57      82      0       0       0       0       960     0       0       0       0       0
56	37	6	4	2	630	750	10	0	0	0	0
8	40	40	8	32	502	622	10	0	0	0	0
72	35	30	15	15	837	957	10	0	0	0	0
37	47	6	5	1	181	301	10	0	0	0	0
44	5	20	2	18	101	1005	10	0	0	0	0
63	65	8	8	0	432	552	10	0	0	0	0
20	82	10	2	8	747	867	10	0	0	0	0
55	85	20	13	7	203	323	10	0	0	0	0
25	85	20	6	14	401	521	10	0	0	0	0
2	45	10	0	10	101	1012	10	0	0	0	0
65	82	10	8	2	381	501	10	0	0	0	0
30	25	23	19	4	327	447	10	0	0	0	0
45	30	17	11	6	729	849	10	0	0	0	0
25	30	3	3	0	654	774	10	0	0	0	0
18	80	10	2	8	893	1013	10	0	0	0	0
